p cnf 347 860
1 0
-62 -11 0
-62 -12 0
62 11 12 0
-63 11 0
-63 12 0
63 -11 -12 0
-64 -62 0
-64 -63 0
64 62 63 0
-65 13 0
-65 -62 0
65 -13 62 0
-66 -13 0
-66 62 0
66 13 -62 0
-67 -65 0
-67 -66 0
67 65 66 0
-68 -14 0
-68 -65 0
68 14 65 0
-69 14 0
-69 65 0
69 -14 -65 0
-70 -68 0
-70 -69 0
70 68 69 0
-71 -15 0
-71 68 0
71 15 -68 0
-72 15 0
-72 -68 0
72 -15 68 0
-73 -71 0
-73 -72 0
73 71 72 0
-74 16 0
-74 -71 0
74 -16 71 0
-75 -16 0
-75 71 0
75 16 -71 0
-76 -74 0
-76 -75 0
76 74 75 0
-77 17 0
-77 -74 0
77 -17 74 0
-78 -17 0
-78 74 0
78 17 -74 0
-79 -77 0
-79 -78 0
79 77 78 0
-80 17 0
-80 74 0
80 -17 -74 0
-81 -18 0
-81 -80 0
81 18 80 0
-82 18 0
-82 80 0
82 -18 -80 0
-83 -81 0
-83 -82 0
83 81 82 0
-84 19 0
-84 -81 0
84 -19 81 0
-85 -19 0
-85 81 0
85 19 -81 0
-86 -84 0
-86 -85 0
86 84 85 0
-87 -20 0
-87 -84 0
87 20 84 0
-88 20 0
-88 84 0
88 -20 -84 0
-89 -87 0
-89 -88 0
89 87 88 0
-90 21 0
-90 -87 0
90 -21 87 0
-91 -21 0
-91 87 0
91 21 -87 0
-92 -90 0
-92 -91 0
92 90 91 0
-93 22 0
-93 -90 0
93 -22 90 0
-94 -22 0
-94 90 0
94 22 -90 0
-95 -93 0
-95 -94 0
95 93 94 0
-96 22 0
-96 90 0
96 -22 -90 0
-97 -23 0
-97 -96 0
97 23 96 0
-98 23 0
-98 96 0
98 -23 -96 0
-99 -97 0
-99 -98 0
99 97 98 0
-100 -24 0
-100 97 0
100 24 -97 0
-101 24 0
-101 -97 0
101 -24 97 0
-102 -100 0
-102 -101 0
102 100 101 0
-103 25 0
-103 -100 0
103 -25 100 0
-104 -25 0
-104 100 0
104 25 -100 0
-105 -103 0
-105 -104 0
105 103 104 0
-106 26 0
-106 -103 0
106 -26 103 0
-107 -26 0
-107 103 0
107 26 -103 0
-108 -106 0
-108 -107 0
108 106 107 0
-109 26 0
-109 103 0
109 -26 -103 0
-110 27 0
-110 -109 0
110 -27 109 0
-111 -27 0
-111 109 0
111 27 -109 0
-112 -110 0
-112 -111 0
112 110 111 0
-113 27 0
-113 109 0
113 -27 -109 0
-114 -28 0
-114 -113 0
114 28 113 0
-115 28 0
-115 113 0
115 -28 -113 0
-116 -114 0
-116 -115 0
116 114 115 0
-117 29 0
-117 -114 0
117 -29 114 0
-118 -29 0
-118 114 0
118 29 -114 0
-119 -117 0
-119 -118 0
119 117 118 0
-120 30 0
-120 -117 0
120 -30 117 0
-121 -30 0
-121 117 0
121 30 -117 0
-122 -120 0
-122 -121 0
122 120 121 0
-123 30 0
-123 117 0
123 -30 -117 0
-124 -31 0
-124 123 0
124 31 -123 0
-125 31 0
-125 -123 0
125 -31 123 0
-126 -124 0
-126 -125 0
126 124 125 0
-127 -11 0
-127 -126 0
127 11 126 0
-128 -122 0
-128 127 0
128 122 -127 0
-129 119 0
-129 128 0
129 -119 -128 0
-130 -116 0
-130 129 0
130 116 -129 0
-131 -112 0
-131 130 0
131 112 -130 0
-132 -108 0
-132 131 0
132 108 -131 0
-133 105 0
-133 132 0
133 -105 -132 0
-134 -102 0
-134 133 0
134 102 -133 0
-135 -99 0
-135 134 0
135 99 -134 0
-136 -95 0
-136 135 0
136 95 -135 0
-137 92 0
-137 136 0
137 -92 -136 0
-138 -89 0
-138 137 0
138 89 -137 0
-139 86 0
-139 138 0
139 -86 -138 0
-140 -83 0
-140 139 0
140 83 -139 0
-141 -79 0
-141 140 0
141 79 -140 0
-142 76 0
-142 141 0
142 -76 -141 0
-143 -73 0
-143 142 0
143 73 -142 0
-144 -70 0
-144 143 0
144 70 -143 0
-145 67 0
-145 144 0
145 -67 -144 0
-146 -64 0
-146 145 0
146 64 -145 0
-147 10 0
-147 146 0
147 -10 -146 0
-148 9 0
-148 147 0
148 -9 -147 0
-149 8 0
-149 148 0
149 -8 -148 0
-150 7 0
-150 149 0
150 -7 -149 0
-151 6 0
-151 150 0
151 -6 -150 0
-152 5 0
-152 151 0
152 -5 -151 0
-153 4 0
-153 152 0
153 -4 -152 0
-154 3 0
-154 153 0
154 -3 -153 0
-155 2 0
-155 154 0
155 -2 -154 0
-156 31 0
-156 123 0
156 -31 -123 0
-157 -155 0
-157 -156 0
157 155 156 0
-158 -3 0
-158 -4 0
158 3 4 0
-159 -5 0
-159 158 0
159 5 -158 0
-160 -6 0
-160 159 0
160 6 -159 0
-161 -7 0
-161 160 0
161 7 -160 0
-162 -8 0
-162 161 0
162 8 -161 0
-163 -9 0
-163 162 0
163 9 -162 0
-164 -10 0
-164 163 0
164 10 -163 0
-165 64 0
-165 164 0
165 -64 -164 0
-166 -67 0
-166 165 0
166 67 -165 0
-167 70 0
-167 166 0
167 -70 -166 0
-168 73 0
-168 167 0
168 -73 -167 0
-169 -76 0
-169 168 0
169 76 -168 0
-170 79 0
-170 169 0
170 -79 -169 0
-171 83 0
-171 170 0
171 -83 -170 0
-172 -86 0
-172 171 0
172 86 -171 0
-173 89 0
-173 172 0
173 -89 -172 0
-174 -92 0
-174 173 0
174 92 -173 0
-175 95 0
-175 174 0
175 -95 -174 0
-176 99 0
-176 175 0
176 -99 -175 0
-177 102 0
-177 176 0
177 -102 -176 0
-178 -105 0
-178 177 0
178 105 -177 0
-179 108 0
-179 178 0
179 -108 -178 0
-180 112 0
-180 179 0
180 -112 -179 0
-181 116 0
-181 180 0
181 -116 -180 0
-182 -119 0
-182 181 0
182 119 -181 0
-183 122 0
-183 182 0
183 -122 -182 0
-184 11 0
-184 183 0
184 -11 -183 0
-185 156 0
-185 -184 0
185 -156 184 0
-186 -157 0
-186 -185 0
186 157 185 0
-187 -41 0
-187 -42 0
187 41 42 0
-188 43 0
-188 -187 0
188 -43 187 0
-189 -44 0
-189 -188 0
189 44 188 0
-190 -45 0
-190 189 0
190 45 -189 0
-191 46 0
-191 -190 0
191 -46 190 0
-192 47 0
-192 191 0
192 -47 -191 0
-193 -48 0
-193 -192 0
193 48 192 0
-194 49 0
-194 -193 0
194 -49 193 0
-195 -50 0
-195 -194 0
195 50 194 0
-196 51 0
-196 -195 0
196 -51 195 0
-197 52 0
-197 196 0
197 -52 -196 0
-198 -53 0
-198 -197 0
198 53 197 0
-199 -54 0
-199 198 0
199 54 -198 0
-200 55 0
-200 -199 0
200 -55 199 0
-201 56 0
-201 200 0
201 -56 -200 0
-202 57 0
-202 201 0
202 -57 -201 0
-203 -58 0
-203 -202 0
203 58 202 0
-204 59 0
-204 -203 0
204 -59 203 0
-205 60 0
-205 204 0
205 -60 -204 0
-206 61 0
-206 205 0
206 -61 -205 0
-207 60 0
-207 -204 0
207 -60 204 0
-208 -60 0
-208 204 0
208 60 -204 0
-209 -207 0
-209 -208 0
209 207 208 0
-210 -59 0
-210 203 0
210 59 -203 0
-211 -204 0
-211 -210 0
211 204 210 0
-212 58 0
-212 202 0
212 -58 -202 0
-213 -203 0
-213 -212 0
213 203 212 0
-214 57 0
-214 -201 0
214 -57 201 0
-215 -57 0
-215 201 0
215 57 -201 0
-216 -214 0
-216 -215 0
216 214 215 0
-217 56 0
-217 -200 0
217 -56 200 0
-218 -56 0
-218 200 0
218 56 -200 0
-219 -217 0
-219 -218 0
219 217 218 0
-220 -55 0
-220 199 0
220 55 -199 0
-221 -200 0
-221 -220 0
221 200 220 0
-222 54 0
-222 -198 0
222 -54 198 0
-223 -199 0
-223 -222 0
223 199 222 0
-224 53 0
-224 197 0
224 -53 -197 0
-225 -198 0
-225 -224 0
225 198 224 0
-226 52 0
-226 -196 0
226 -52 196 0
-227 -52 0
-227 196 0
227 52 -196 0
-228 -226 0
-228 -227 0
228 226 227 0
-229 -51 0
-229 195 0
229 51 -195 0
-230 -196 0
-230 -229 0
230 196 229 0
-231 50 0
-231 194 0
231 -50 -194 0
-232 -195 0
-232 -231 0
232 195 231 0
-233 -49 0
-233 193 0
233 49 -193 0
-234 -194 0
-234 -233 0
234 194 233 0
-235 48 0
-235 192 0
235 -48 -192 0
-236 -193 0
-236 -235 0
236 193 235 0
-237 47 0
-237 -191 0
237 -47 191 0
-238 -47 0
-238 191 0
238 47 -191 0
-239 -237 0
-239 -238 0
239 237 238 0
-240 -46 0
-240 190 0
240 46 -190 0
-241 -191 0
-241 -240 0
241 191 240 0
-242 45 0
-242 -189 0
242 -45 189 0
-243 -190 0
-243 -242 0
243 190 242 0
-244 44 0
-244 188 0
244 -44 -188 0
-245 -189 0
-245 -244 0
245 189 244 0
-246 -43 0
-246 187 0
246 43 -187 0
-247 -188 0
-247 -246 0
247 188 246 0
-248 41 0
-248 42 0
248 -41 -42 0
-249 -187 0
-249 -248 0
249 187 248 0
-250 -33 0
-250 -34 0
250 33 34 0
-251 -35 0
-251 250 0
251 35 -250 0
-252 -36 0
-252 251 0
252 36 -251 0
-253 -37 0
-253 252 0
253 37 -252 0
-254 -38 0
-254 253 0
254 38 -253 0
-255 -39 0
-255 254 0
255 39 -254 0
-256 -40 0
-256 255 0
256 40 -255 0
-257 249 0
-257 256 0
257 -249 -256 0
-258 -247 0
-258 257 0
258 247 -257 0
-259 245 0
-259 258 0
259 -245 -258 0
-260 243 0
-260 259 0
260 -243 -259 0
-261 -241 0
-261 260 0
261 241 -260 0
-262 239 0
-262 261 0
262 -239 -261 0
-263 236 0
-263 262 0
263 -236 -262 0
-264 -234 0
-264 263 0
264 234 -263 0
-265 232 0
-265 264 0
265 -232 -264 0
-266 -230 0
-266 265 0
266 230 -265 0
-267 228 0
-267 266 0
267 -228 -266 0
-268 225 0
-268 267 0
268 -225 -267 0
-269 223 0
-269 268 0
269 -223 -268 0
-270 -221 0
-270 269 0
270 221 -269 0
-271 219 0
-271 270 0
271 -219 -270 0
-272 216 0
-272 271 0
272 -216 -271 0
-273 213 0
-273 272 0
273 -213 -272 0
-274 -211 0
-274 273 0
274 211 -273 0
-275 209 0
-275 274 0
275 -209 -274 0
-276 41 0
-276 275 0
276 -41 -275 0
-277 206 0
-277 -276 0
277 -206 276 0
-278 2 0
-278 206 0
278 -2 -206 0
-279 32 0
-279 278 0
279 -32 -278 0
-280 -277 0
-280 -279 0
280 277 279 0
-281 186 0
-281 -280 0
281 -186 280 0
-282 2 0
-282 -206 0
282 -2 206 0
-283 -2 0
-283 -32 0
283 2 32 0
-284 206 0
-284 -283 0
284 -206 283 0
-285 32 0
-285 -41 0
285 -32 41 0
-286 61 0
-286 285 0
286 -61 -285 0
-287 -209 0
-287 286 0
287 209 -286 0
-288 211 0
-288 287 0
288 -211 -287 0
-289 -213 0
-289 288 0
289 213 -288 0
-290 -216 0
-290 289 0
290 216 -289 0
-291 -219 0
-291 290 0
291 219 -290 0
-292 221 0
-292 291 0
292 -221 -291 0
-293 -223 0
-293 292 0
293 223 -292 0
-294 -225 0
-294 293 0
294 225 -293 0
-295 -228 0
-295 294 0
295 228 -294 0
-296 230 0
-296 295 0
296 -230 -295 0
-297 -232 0
-297 296 0
297 232 -296 0
-298 234 0
-298 297 0
298 -234 -297 0
-299 -236 0
-299 298 0
299 236 -298 0
-300 -239 0
-300 299 0
300 239 -299 0
-301 241 0
-301 300 0
301 -241 -300 0
-302 -243 0
-302 301 0
302 243 -301 0
-303 -245 0
-303 302 0
303 245 -302 0
-304 247 0
-304 303 0
304 -247 -303 0
-305 -249 0
-305 304 0
305 249 -304 0
-306 40 0
-306 305 0
306 -40 -305 0
-307 39 0
-307 306 0
307 -39 -306 0
-308 38 0
-308 307 0
308 -38 -307 0
-309 37 0
-309 308 0
309 -37 -308 0
-310 36 0
-310 309 0
310 -36 -309 0
-311 35 0
-311 310 0
311 -35 -310 0
-312 34 0
-312 311 0
312 -34 -311 0
-313 33 0
-313 312 0
313 -33 -312 0
-314 -277 0
-314 -313 0
314 277 313 0
-315 -284 0
-315 314 0
315 284 -314 0
-316 -157 0
-316 -315 0
316 157 315 0
-317 -282 0
-317 316 0
317 282 -316 0
-318 -185 0
-318 -317 0
318 185 317 0
-319 186 0
-319 -318 0
319 -186 318 0
-320 -281 0
-320 319 0
320 281 -319 0
-321 1 0
-321 320 0
321 -1 -320 0
-322 1 0
-322 321 0
322 -1 -321 0
-323 1 0
-323 322 0
323 -1 -322 0
-324 1 0
-324 323 0
324 -1 -323 0
-325 1 0
-325 324 0
325 -1 -324 0
-326 1 0
-326 325 0
326 -1 -325 0
-327 1 0
-327 326 0
327 -1 -326 0
-328 1 0
-328 327 0
328 -1 -327 0
-329 1 0
-329 328 0
329 -1 -328 0
-330 1 0
-330 329 0
330 -1 -329 0
-331 1 0
-331 330 0
331 -1 -330 0
-332 1 0
-332 331 0
332 -1 -331 0
-333 1 0
-333 332 0
333 -1 -332 0
-334 1 0
-334 333 0
334 -1 -333 0
-335 1 0
-335 334 0
335 -1 -334 0
-336 1 0
-336 335 0
336 -1 -335 0
-337 1 0
-337 336 0
337 -1 -336 0
-338 1 0
-338 337 0
338 -1 -337 0
-339 1 0
-339 338 0
339 -1 -338 0
-340 1 0
-340 339 0
340 -1 -339 0
-341 1 0
-341 340 0
341 -1 -340 0
-342 1 0
-342 341 0
342 -1 -341 0
-343 1 0
-343 342 0
343 -1 -342 0
-344 1 0
-344 343 0
344 -1 -343 0
-345 1 0
-345 344 0
345 -1 -344 0
-346 1 0
-346 345 0
346 -1 -345 0
-347 1 0
-347 346 0
347 -1 -346 0
-347 0
